letting n =  10
letting blocks =  [[1, 1], [1, 2], [1, 4], [1, 8], [2, 1], [2, 2], [2, 6], [2, 7], [2, 9], [3, 1], [3, 6], [3, 8], [3, 9], [4, 5], [4, 7], [4, 8], [4, 9], [5, 3], [5, 4], [5, 5], [5, 8], [6, 2], [6, 6], [6, 9], [7, 1], [7, 2], [7, 4], [7, 5], [7, 7], [8, 1], [8, 2], [8, 3], [8, 5], [8, 7], [9, 3], [9, 5], [9, 8], [9, 9], [9, 10], [10, 2], [10, 9], [10, 10]]
